/* sp-gen.dat */
param N := 4;
param p := 1;
param q := 4;

/* cost{V,V} の添字(リンクを表すノードの組)と値(リンクの距離) */
param cost :=
1 1 100000  /* リンクが存在しない場合には距離を十分に大きく設定 */
1 2 5
1 3 8
1 4 100000
2 1 100000
2 2 100000
2 3 2
2 4 7
3 1 100000
3 2 100000
3 3 100000
3 4 4
4 1 100000
4 2 100000
4 3 100000
4 4 100000
;
end;
